PROBLEM NAME: eil51_n5
KNAPSACK DATA TYPE: multiple strongly correlated
DIMENSION: 5
NUMBER OF ITEMS: 4
CAPACITY OF KNAPSACK: 2233
MIN SPEED: 0.1
MAX SPEED: 1
RENTING RATIO: 6.94
EDGE_WEIGHT_TYPE: CEIL_2D
NODE_COORD_SECTION	(INDEX, X, Y):
1	31	32
2	36	16
3	62	63
4	5	6
5	30	15
ITEMS SECTION	(INDEX, PROFIT, WEIGHT, ASSIGNED NODE NUMBER):
1	1008	808	3
2	927	727	2
3	910	710	5
4	412	212	4
